sat-competition-2018/bijection/benchmarks/cms-scheel-sha3-bijection-w1-rp.cnf
c This is a CNF SAT formula in the DIMACS CNF format,
c produced with the bc2cnf translator by Tommi Junttila;
c see http://users.ics.aalto.fi/tjunttil/circuits/index.html
c cbijection <-> 1
c csurout <-> 3
c cinin <-> 3
c cinout <-> 4
c csurin <-> 4
c h2out24 <-> 30
c h2r0p24 <-> 30
c h2in21 <-> 30
c h2out23 <-> 31
c h2r0p23 <-> 31
c h2in15 <-> 31
c h2out22 <-> 32
c h2r0p22 <-> 32
c h2in14 <-> 32
c h2out21 <-> 33
c h2r0p21 <-> 33
c h2in8 <-> 33
c h2out20 <-> 34
c h2r0p20 <-> 34
c h2in2 <-> 34
c h2out19 <-> 35
c h2r0p19 <-> 35
c h2in23 <-> 35
c h2out18 <-> 36
c h2r0p18 <-> 36
c h2in17 <-> 36
c h2out17 <-> 37
c h2r0p17 <-> 37
c h2in11 <-> 37
c h2out16 <-> 38
c h2r0p16 <-> 38
c h2in5 <-> 38
c h2out15 <-> 39
c h2r0p15 <-> 39
c h2in4 <-> 39
c h2out14 <-> 40
c h2r0p14 <-> 40
c h2in20 <-> 40
c h2out13 <-> 41
c h2r0p13 <-> 41
c h2in19 <-> 41
c h2out12 <-> 42
c h2r0p12 <-> 42
c h2in13 <-> 42
c h2out11 <-> 43
c h2r0p11 <-> 43
c h2in7 <-> 43
c h2out10 <-> 44
c h2r0p10 <-> 44
c h2in1 <-> 44
c h2out9 <-> 45
c h2r0p9 <-> 45
c h2in22 <-> 45
c h2out8 <-> 46
c h2r0p8 <-> 46
c h2in16 <-> 46
c h2out7 <-> 47
c h2r0p7 <-> 47
c h2in10 <-> 47
c h2out6 <-> 48
c h2r0p6 <-> 48
c h2in9 <-> 48
c h2out5 <-> 49
c h2r0p5 <-> 49
c h2in3 <-> 49
c h2out4 <-> 50
c h2r0p4 <-> 50
c h2in24 <-> 50
c h2out3 <-> 51
c h2r0p3 <-> 51
c h2in18 <-> 51
c h2out2 <-> 52
c h2r0p2 <-> 52
c h2in12 <-> 52
c h2out1 <-> 53
c h2r0p1 <-> 53
c h2in6 <-> 53
c h2out0 <-> 54
c h2r0p0 <-> 54
c h2in0 <-> 54
c h1out24 <-> 55
c h1r0p24 <-> 55
c h1in21 <-> 55
c h1out23 <-> 56
c h1r0p23 <-> 56
c h1in15 <-> 56
c h1out22 <-> 57
c h1r0p22 <-> 57
c h1in14 <-> 57
c h1out21 <-> 58
c h1r0p21 <-> 58
c h1in8 <-> 58
c h1out20 <-> 59
c h1r0p20 <-> 59
c h1in2 <-> 59
c h1out19 <-> 60
c h1r0p19 <-> 60
c h1in23 <-> 60
c h1out18 <-> 61
c h1r0p18 <-> 61
c h1in17 <-> 61
c h1out17 <-> 62
c h1r0p17 <-> 62
c h1in11 <-> 62
c h1out16 <-> 63
c h1r0p16 <-> 63
c h1in5 <-> 63
c h1out15 <-> 64
c h1r0p15 <-> 64
c h1in4 <-> 64
c h1out14 <-> 65
c h1r0p14 <-> 65
c h1in20 <-> 65
c h1out13 <-> 66
c h1r0p13 <-> 66
c h1in19 <-> 66
c h1out12 <-> 67
c h1r0p12 <-> 67
c h1in13 <-> 67
c h1out11 <-> 68
c h1r0p11 <-> 68
c h1in7 <-> 68
c h1out10 <-> 69
c h1r0p10 <-> 69
c h1in1 <-> 69
c h1out9 <-> 70
c h1r0p9 <-> 70
c h1in22 <-> 70
c h1out8 <-> 71
c h1r0p8 <-> 71
c h1in16 <-> 71
c h1out7 <-> 72
c h1r0p7 <-> 72
c h1in10 <-> 72
c h1out6 <-> 73
c h1r0p6 <-> 73
c h1in9 <-> 73
c h1out5 <-> 74
c h1r0p5 <-> 74
c h1in3 <-> 74
c h1out4 <-> 75
c h1r0p4 <-> 75
c h1in24 <-> 75
c h1out3 <-> 76
c h1r0p3 <-> 76
c h1in18 <-> 76
c h1out2 <-> 77
c h1r0p2 <-> 77
c h1in12 <-> 77
c h1out1 <-> 78
c h1r0p1 <-> 78
c h1in6 <-> 78
c h1out0 <-> 79
c h1r0p0 <-> 79
c h1in0 <-> 79
p cnf 79 135
1 -2 0
1 -2 0
-1 2 2 0
1 0
-2 3 0
-2 4 0
2 -4 -3 0
3 4 0
-3 -4 0
-4 5 0
-4 6 0
-4 7 0
-4 8 0
-4 9 0
-4 10 0
-4 11 0
-4 12 0
-4 13 0
-4 14 0
-4 15 0
-4 16 0
-4 17 0
-4 18 0
-4 19 0
-4 20 0
-4 21 0
-4 22 0
-4 23 0
-4 24 0
-4 25 0
-4 26 0
-4 27 0
-4 28 0
-4 29 0
4 -29 -28 -27 -26 -25 -24 -23 -22 -21 -20 -19 -18 -17 -16 -15 -14 -13 -12 -11 -10 -9 -8 -7 -6 -5 0
5 75 50 0
5 -75 -50 0
-5 75 -50 0
-5 -75 50 0
6 60 35 0
6 -60 -35 0
-6 60 -35 0
-6 -60 35 0
7 70 45 0
7 -70 -45 0
-7 70 -45 0
-7 -70 45 0
8 55 30 0
8 -55 -30 0
-8 55 -30 0
-8 -55 30 0
9 65 40 0
9 -65 -40 0
-9 65 -40 0
-9 -65 40 0
10 66 41 0
10 -66 -41 0
-10 66 -41 0
-10 -66 41 0
11 76 51 0
11 -76 -51 0
-11 76 -51 0
-11 -76 51 0
12 61 36 0
12 -61 -36 0
-12 61 -36 0
-12 -61 36 0
13 71 46 0
13 -71 -46 0
-13 71 -46 0
-13 -71 46 0
14 56 31 0
14 -56 -31 0
-14 56 -31 0
-14 -56 31 0
15 57 32 0
15 -57 -32 0
-15 57 -32 0
-15 -57 32 0
16 67 42 0
16 -67 -42 0
-16 67 -42 0
-16 -67 42 0
17 77 52 0
17 -77 -52 0
-17 77 -52 0
-17 -77 52 0
18 62 37 0
18 -62 -37 0
-18 62 -37 0
-18 -62 37 0
19 72 47 0
19 -72 -47 0
-19 72 -47 0
-19 -72 47 0
20 73 48 0
20 -73 -48 0
-20 73 -48 0
-20 -73 48 0
21 58 33 0
21 -58 -33 0
-21 58 -33 0
-21 -58 33 0
22 68 43 0
22 -68 -43 0
-22 68 -43 0
-22 -68 43 0
23 78 53 0
23 -78 -53 0
-23 78 -53 0
-23 -78 53 0
24 63 38 0
24 -63 -38 0
-24 63 -38 0
-24 -63 38 0
25 64 39 0
25 -64 -39 0
-25 64 -39 0
-25 -64 39 0
26 74 49 0
26 -74 -49 0
-26 74 -49 0
-26 -74 49 0
27 59 34 0
27 -59 -34 0
-27 59 -34 0
-27 -59 34 0
28 69 44 0
28 -69 -44 0
-28 69 -44 0
-28 -69 44 0
29 79 54 0
29 -79 -54 0
-29 79 -54 0
-29 -79 54 0
